(set-info :source  loris-7.ddns.comp.nus.edu.sg/~project/hip/) 
;Variables declarations
(declare-fun Anon_17 () Int)
(declare-fun nb_7283 () Int)
(declare-fun nb () Int)
(declare-fun h_7285 () Int)
(declare-fun na_7282 () Int)
(declare-fun na () Int)
(declare-fun a_primed () Int)
(declare-fun a () Int)
(declare-fun b_primed () Int)
(declare-fun b () Int)
(declare-fun c () Int)
(declare-fun d () Int)
(declare-fun color_primed () Int)
(declare-fun flted_154_7527 () Int)
(declare-fun flted_154_7526 () Int)
(declare-fun flted_154_7525 () Int)
(declare-fun flted_154_7524 () Int)
(declare-fun color () Int)
(declare-fun v_int_161_7529 () Int)
(declare-fun v_7536 () Int)
(declare-fun v_int_161_7528 () Int)
(declare-fun l_7537 () Int)
(declare-fun c_primed () Int)
(declare-fun r_7540 () Int)
(declare-fun d_primed () Int)
(declare-fun nc () Int)
(declare-fun nd () Int)
(declare-fun h () Int)
(declare-fun bhl_7539 () Int)
(declare-fun bhr_7542 () Int)
(declare-fun nc_7284 () Int)
(declare-fun nr_7541 () Int)
(declare-fun nl_7538 () Int)
;Relations declarations
;Axioms assertions
;Antecedent
(assert (= Anon_17 flted_154_7526))
(assert (= nb_7283 nb))
(assert (= h_7285 h))
(assert (= na_7282 na))
(assert (= a_primed a))
(assert (= b_primed b))
(assert (= c_primed c))
(assert (= d_primed d))
(assert (= color_primed color))
(assert (= flted_154_7527 0))
(assert (= flted_154_7526 0))
(assert (= flted_154_7525 0))
(assert (= flted_154_7524 0))
(assert (= color 1))
(assert (= v_int_161_7528 0))
(assert (= v_int_161_7529 1))
(assert (= v_7536 v_int_161_7528))
(assert (= l_7537 c_primed))
(assert (= r_7540 d_primed))
(assert (= nl_7538 nc))
(assert (= bhl_7539 h))
(assert (= nr_7541 nd))
(assert (= bhr_7542 h))
(assert (= bhl_7539 bhr_7542))
(assert (= nc_7284 (+ (+ nr_7541 1) nl_7538)))
;Negation of Consequence
(assert (not false))
(check-sat)